(set-logic HORN)
(declare-fun inv ((_ BitVec 32) (_ BitVec 32) (_ BitVec 32) (_ BitVec 32) (_ BitVec 32) (_ BitVec 32) (_ BitVec 32) (_ BitVec 32) (_ BitVec 32) ) Bool)
(assert (forall ((x1 (_ BitVec 32)) (x2 (_ BitVec 32)) (x3 (_ BitVec 32)) (d1 (_ BitVec 32)) (d2 (_ BitVec 32)) (d3 (_ BitVec 32)) (v1 (_ BitVec 32)) (v2 (_ BitVec 32)) (v3 (_ BitVec 32))) 
       (=> ( and ( = d1 (_ bv1 32) ) ( = d2 (_ bv1 32) ) ( = d3 (_ bv1 32) ) ) (inv x1 x2 x3 d1 d2 d3 v1 v2 v3))))
(assert (forall ((x1 (_ BitVec 32)) (x2 (_ BitVec 32)) (x3 (_ BitVec 32)) (d1 (_ BitVec 32)) (d2 (_ BitVec 32)) (d3 (_ BitVec 32)) (v1 (_ BitVec 32)) (v2 (_ BitVec 32)) (v3 (_ BitVec 32)) (x1! (_ BitVec 32)) (x2! (_ BitVec 32)) (x3! (_ BitVec 32)) (d1! (_ BitVec 32)) (d2! (_ BitVec 32)) (d3! (_ BitVec 32)) (v1! (_ BitVec 32)) (v2! (_ BitVec 32)) (v3! (_ BitVec 32))) 
       (=> (and (inv x1 x2 x3 d1 d2 d3 v1 v2 v3) ( let ( ( a!1 ( and ( = d1! d1 ) ( = d2! d2 ) ( = d3! d3 ) ) ) ) ( let ( ( a!2 ( and ( = x2! x2 ) ( and ( = x3! x3 ) a!1 ) ( bvsgt x1 (_ bv0 32) ) ( bvsgt x2 (_ bv0 32) ) ( bvsgt x3 (_ bv0 32) ) ( = x1! ( bvadd x1 ( bvsub (_ bv0 32) d1 ) ) ) ) ) ( a!3 ( and ( = x1! x1 ) ( and ( = x3! x3 ) a!1 ) ( bvsgt x1 (_ bv0 32) ) ( bvsgt x2 (_ bv0 32) ) ( bvsgt x3 (_ bv0 32) ) ( = x2! ( bvadd x2 ( bvsub (_ bv0 32) d2 ) ) ) ) ) ( a!4 ( and ( = x1! x1 ) ( = x2! x2 ) a!1 ( bvsgt x1 (_ bv0 32) ) ( bvsgt x2 (_ bv0 32) ) ( bvsgt x3 (_ bv0 32) ) ( = x3! ( bvadd x3 ( bvsub (_ bv0 32) d3 ) ) ) ) ) ) ( or a!2 a!3 a!4 ) ) )) (inv x1! x2! x3! d1! d2! d3! v1! v2! v3!))))
(assert (forall ((x1 (_ BitVec 32)) (x2 (_ BitVec 32)) (x3 (_ BitVec 32)) (d1 (_ BitVec 32)) (d2 (_ BitVec 32)) (d3 (_ BitVec 32)) (v1 (_ BitVec 32)) (v2 (_ BitVec 32)) (v3 (_ BitVec 32))) 
       (=> (inv x1 x2 x3 d1 d2 d3 v1 v2 v3) ( or ( bvslt x1 (_ bv0 32) ) ( bvslt x2 (_ bv0 32) ) ( bvslt x3 (_ bv0 32) ) ( = x1 (_ bv0 32) ) ( = x2 (_ bv0 32) ) ( = x3 (_ bv0 32) ) ))))
(check-sat)
